
;this file is automatically generated: Mon Oct 26 19:31:24 CST 2020

;declarations generated

(declare-fun obj_09ad0188_6464_48fe_b3af_0d9df4e5a29f ( Int) Int)
(declare-fun oclExcludes ( Int Int) Bool)
(declare-fun Cardinality ( Int) Int)
(declare-fun oclSelect ( Int Bool) Int)
(declare-fun type_60eaadd6_25b2_45cc_ac88_59f79e62baa5_Class7 ( Int) Bool)
(declare-fun Enum0 ( Int) Int)
(declare-fun Enum1 ( Int) Int)
(declare-fun Enum2 ( Int) Int)
(declare-fun container_ ( Int) Int)
(declare-fun class7_Class7BoolAttr1 ( Int) Bool)
(declare-fun oclIncludes ( Int Int) Bool)
(declare-fun ObjAt ( Int Int) Int)

;formula(s) generated
(assert (! (forall ((v Int)) (=> ( type_60eaadd6_25b2_45cc_ac88_59f79e62baa5_Class7 v )  (not ( class7_Class7BoolAttr1 ( obj_09ad0188_6464_48fe_b3af_0d9df4e5a29f v )  )  ))):named l0))
(assert (exists ((o Int)) ( type_60eaadd6_25b2_45cc_ac88_59f79e62baa5_Class7 ( obj_09ad0188_6464_48fe_b3af_0d9df4e5a29f o )  ) ))

 ;end of formula 